NAME
* Written by MOSEK version 6.0.0.137
OBJSENSE
    MIN
ROWS
 N  obj
 E  c1
 E  c2
 E  c3
 E  c4
 E  c5
 E  c6
 E  c7
 E  c8
 E  c9
 E  c10
 E  c11
 E  c12
 E  c13
 E  c14
COLUMNS
    x1        obj       1.1e+02
    x1        c1        1
    x1        c2        2
    x1        c3        4
    x1        c4        7
    x1        c13       6
    x1        c14       7
    x2        obj       1.08e+02
    x2        c2        4
    x2        c3        6
    x2        c4        10
    x2        c14       4
    x3        obj       50
    x3        c2        4
    x3        c3        4
    x3        c4        1
    x3        c14       5
    x4        obj       86
    x4        c2        3
    x4        c3        5
    x4        c4        8
    x4        c14       5
    x5        obj       58
    x5        c2        3
    x5        c3        6
    x5        c4        3
    x5        c14       5
    x6        obj       82
    x6        c2        8
    x6        c3        6
    x6        c4        4
    x6        c14       2
    x7        obj       1.39e+02
    x7        c5        1
    x7        c6        7
    x7        c7        6
    x7        c8        3
    x7        c13       8
    x7        c14       6
    x8        obj       1.39e+02
    x8        c6        6
    x8        c7        6
    x8        c8        10
    x8        c14       7
    x9        obj       82
    x9        c6        3
    x9        c7        5
    x9        c8        3
    x9        c14       6
    x10       obj       1.18e+02
    x10       c6        8
    x10       c7        3
    x10       c8        10
    x10       c14       2
    x11       obj       1.2e+02
    x11       c6        5
    x11       c7        8
    x11       c8        6
    x11       c14       7
    x12       obj       1.37e+02
    x12       c6        4
    x12       c7        15
    x12       c8        3
    x12       c14       4
    x13       obj       77
    x13       c9        1
    x13       c10       3
    x13       c11       3
    x13       c12       4
    x13       c13       3
    x13       c14       4
    x14       obj       94
    x14       c10       4
    x14       c11       9
    x14       c12       6
    x14       c14       6
    x15       obj       54
    x15       c10       6
    x15       c11       2
    x15       c12       3
    x15       c14       4
    x16       obj       41
    x16       c10       2
    x16       c11       5
    x16       c12       2
    x16       c14       1
    x17       obj       60
    x17       c10       5
    x17       c11       2
    x17       c12       5
    x17       c14       3
    x18       obj       59
    x18       c10       3
    x18       c11       4
    x18       c12       4
    x18       c14       4
RHS
    rhs       c1        16
    rhs       c2        1.51e+02
    rhs       c3        2.24e+02
    rhs       c4        2.43e+02
    rhs       c5        15
    rhs       c6        2.6e+02
    rhs       c7        3.25e+02
    rhs       c8        2.37e+02
    rhs       c9        13
    rhs       c10       1.42e+02
    rhs       c11       1.41e+02
    rhs       c12       1.52e+02
    rhs       c13       2.55e+02
    rhs       c14       6.4e+02
RANGES
BOUNDS
 LI bound     x1        0
 LI bound     x2        0
 LI bound     x3        0
 LI bound     x4        0
 FR bound     x5
 FR bound     x6
 LI bound     x7        0
 LI bound     x8        0
 LI bound     x9        0
 LI bound     x10       0
 FR bound     x11
 FR bound     x12
 LI bound     x13       0
 LI bound     x14       0
 LI bound     x15       0
 LI bound     x16       0
 FR bound     x17
 FR bound     x18
CSECTION      k1        0              QUAD
    x1
    x2
    x3
    x4
    x5
    x6
CSECTION      k2        0              QUAD
    x7
    x8
    x9
    x10
    x11
    x12
CSECTION      k3        0              QUAD
    x13
    x14
    x15
    x16
    x17
    x18
ENDATA
